param TOT_LAYERS := 6;  # Total Number of layers in the ANN
param N_NODES := 3 5 5 5 4 1;  # Number of nodes for each layer
param ANN_WEIGTHS :=
                     1   5 4 4 1 4 -4 -8 -6 -9 8 4 -5 0 4 2
                     2   0 9 -2 -5 1 1 -1 9 -3 -7 9 -2 4 -3 7 -1 -7 8 -9 0 9 5 3 10 -7
                     3   7 -10 0 -10 -4 -1 10 -1 -8 -3 9 -3 -8 9 -5 10 3 9 -6 -7 -6 -4 0 -2 -2
                     4   9 8 10 8 7 4 10 -7 -9 5 -10 9 -9 8 -4 -6 9 7 1 -8
                     5   -7 3 -8 6 ;
end;
